p wcnf 177 88 89 
1 -29 91 0 
1 75 155 0 
1 -92 -18 0 
1 -105 55 0 
1 137 31 0 
1 159 9 0 
1 120 103 0 
1 -77 -37 0 
1 -100 -25 0 
1 -57 78 0 
1 -12 -164 0 
1 110 -85 0 
1 -149 -59 0 
1 -80 -87 0 
1 -23 -120 0 
1 157 32 0 
1 151 147 0 
1 50 58 0 
1 -20 -123 0 
1 95 109 0 
1 -75 94 0 
1 80 -88 0 
1 -172 -49 0 
1 -103 133 0 
1 46 -43 0 
1 5 -19 0 
1 51 59 0 
1 103 154 0 
1 50 56 0 
1 -20 89 0 
1 -106 -108 0 
1 -86 144 0 
1 166 31 0 
1 140 -143 0 
1 -34 -24 0 
1 -1 95 0 
1 -148 98 0 
1 -146 -139 0 
1 176 -45 0 
1 59 -81 0 
1 -145 -8 0 
1 51 145 0 
1 117 7 0 
1 -100 50 0 
1 -85 -35 0 
1 54 -68 0 
1 -60 -17 0 
1 105 -92 0 
1 1 -175 0 
1 35 61 0 
1 76 -132 0 
1 44 -148 0 
1 -143 137 0 
1 80 -52 0 
1 5 -108 0 
1 66 146 0 
1 139 92 0 
1 -81 116 0 
1 -128 -143 0 
1 -38 10 0 
1 -32 -97 0 
1 117 96 0 
1 68 71 0 
1 -56 -84 0 
1 -125 116 0 
1 -164 80 0 
1 73 -26 0 
1 104 61 0 
1 -28 -5 0 
1 112 86 0 
1 -82 -59 0 
1 -171 106 0 
1 -38 -37 0 
1 -86 -105 0 
1 -20 -158 0 
1 -31 166 0 
1 165 7 0 
1 44 164 0 
1 -27 155 0 
1 42 -88 0 
1 -83 148 0 
1 162 -127 0 
1 -55 -119 0 
1 -63 89 0 
1 -94 120 0 
1 7 56 0 
1 -45 68 0 
1 -23 -31 0 
